848335
95,25,78,51,79,29,40,94,26,17,12,19,59,90,24,43,54,98,71,34,46,28,11,23,65,52,22,73,84,92,39,14,81,86,15,16,58,82,67,61,83,76,38,88,50,97,42,35,2,27,64,5,3,85,89,8,53,91,44,55,72,36,99,68,63,13,80,37,74,70,1,48,87,45,4,7,66,47,57,33,9,32,60,31,62,93,49,30,96,21,20,77,10,56,18,69,75,6,41